(set-info :source |printed by MathSAT|)
(declare-fun |.x{193}| () Int)
(declare-fun |.x{202}| () Int)
(declare-fun |.x{194}| () Int)
(declare-fun |.y{3}| () Int)
(declare-fun |.x{195}| () (Array Int Int))
(declare-fun |.x{203}| () (Array Int Int))
(declare-fun |.x{196}| () Int)
(declare-fun |.x{201}| () Int)
(declare-fun |.y{2}| () Int)
(declare-fun |.x{204}| () Int)
(declare-fun |.loc{4}| () Bool)
(declare-fun |.loc{7}| () Bool)
(declare-fun |.loc{5}| () Bool)
(declare-fun |.loc{8}| () Bool)
(declare-fun |.loc{6}| () Bool)
(declare-fun |.loc{9}| () Bool)
(declare-fun |.x{212}| () Int)
(declare-fun |.x{230}| () Int)
(define-fun .def_18 () Bool (! |.loc{4}| :next |.loc{7}|))
(define-fun .def_68 () Bool (not .def_18))
(define-fun .def_20 () Bool (! |.loc{5}| :next |.loc{8}|))
(define-fun .def_54 () Bool (not .def_20))
(define-fun .def_222 () Bool (and .def_54 .def_68))
(define-fun .def_22 () Bool (! |.loc{6}| :next |.loc{9}|))
(define-fun .def_56 () Bool (not .def_22))
(define-fun .def_223 () Bool (! (and .def_56 .def_222) :init true))
(define-fun .def_14 () Int (! |.x{196}| :next |.x{201}|))
(define-fun .def_199 () Bool (= .def_14 |.x{204}|))
(define-fun .def_198 () Bool (= |.x{201}| 0))
(define-fun .def_200 () Bool (and .def_198 .def_199))
(define-fun .def_10 () Int (! |.x{194}| :next |.y{3}|))
(define-fun .def_33 () Bool (<= .def_14 .def_10))
(define-fun .def_201 () Bool (and .def_33 .def_200))
(define-fun .def_202 () Bool (and .def_68 .def_201))
(define-fun .def_194 () Int (* (- 1) |.x{201}|))
(define-fun .def_195 () Int (+ .def_14 .def_194))
(define-fun .def_196 () Bool (= .def_195 (- 1)))
(define-fun .def_58 () Int (* (- 1) |.x{212}|))
(define-fun .def_188 () Int (+ .def_14 .def_58))
(define-fun .def_8 () Int (! |.x{193}| :next |.x{202}|))
(define-fun .def_189 () Int (+ .def_8 .def_188))
(define-fun .def_190 () Bool (= .def_189 0))
(define-fun .def_16 () Int (! |.y{2}| :next |.x{204}|))
(define-fun .def_185 () Bool (<= .def_16 .def_14))
(define-fun .def_186 () Bool (not .def_185))
(define-fun .def_12 () (Array Int Int) (! |.x{195}| :next |.x{203}|))
(define-fun .def_182 () Int (select .def_12 |.x{212}|))
(define-fun .def_183 () Bool (= .def_182 47))
(define-fun .def_180 () Bool (= .def_16 |.x{204}|))
(define-fun .def_181 () Bool (and .def_18 .def_180))
(define-fun .def_184 () Bool (and .def_181 .def_183))
(define-fun .def_187 () Bool (and .def_184 .def_186))
(define-fun .def_191 () Bool (and .def_187 .def_190))
(define-fun .def_46 () Bool (<= |.x{212}| 0))
(define-fun .def_47 () Bool (not .def_46))
(define-fun .def_45 () Bool (<= .def_8 0))
(define-fun .def_48 () Bool (or .def_45 .def_47))
(define-fun .def_192 () Bool (and .def_48 .def_191))
(define-fun .def_50 () Bool (not .def_45))
(define-fun .def_193 () Bool (and .def_50 .def_192))
(define-fun .def_197 () Bool (and .def_193 .def_196))
(define-fun .def_203 () Bool (or .def_197 .def_202))
(define-fun .def_179 () Bool (and |.loc{7}| .def_20))
(define-fun .def_204 () Bool (and .def_179 .def_203))
(define-fun .def_65 () Bool (= |.y{3}| 0))
(define-fun .def_30 () Bool (= .def_14 |.x{201}|))
(define-fun .def_137 () Bool (and .def_30 .def_65))
(define-fun .def_138 () Bool (and .def_18 .def_137))
(define-fun .def_176 () Bool (and .def_33 .def_138))
(define-fun .def_88 () Bool (not |.loc{7}|))
(define-fun .def_177 () Bool (and .def_88 .def_176))
(define-fun .def_178 () Bool (and .def_54 .def_177))
(define-fun .def_205 () Bool (or .def_178 .def_204))
(define-fun .def_100 () Bool (= .def_12 |.x{203}|))
(define-fun .def_206 () Bool (and .def_100 .def_205))
(define-fun .def_171 () (Array Int Int) (store .def_12 |.x{212}| 47))
(define-fun .def_172 () Bool (= |.x{203}| .def_171))
(define-fun .def_164 () Bool (and .def_20 .def_30))
(define-fun .def_165 () Bool (and .def_68 .def_164))
(define-fun .def_34 () Bool (not .def_33))
(define-fun .def_166 () Bool (and .def_34 .def_165))
(define-fun .def_40 () Int (* (- 1) |.y{3}|))
(define-fun .def_41 () Int (+ .def_10 .def_40))
(define-fun .def_42 () Bool (= .def_41 (- 1)))
(define-fun .def_167 () Bool (and .def_42 .def_166))
(define-fun .def_168 () Bool (and .def_48 .def_167))
(define-fun .def_169 () Bool (and .def_88 .def_168))
(define-fun .def_173 () Bool (and .def_169 .def_172))
(define-fun .def_174 () Bool (and .def_50 .def_173))
(define-fun .def_59 () Int (+ .def_10 .def_58))
(define-fun .def_60 () Int (+ .def_8 .def_59))
(define-fun .def_61 () Bool (= .def_60 0))
(define-fun .def_175 () Bool (and .def_61 .def_174))
(define-fun .def_207 () Bool (or .def_175 .def_206))
(define-fun .def_208 () Bool (and |.loc{8}| .def_207))
(define-fun .def_158 () Bool (and .def_33 .def_137))
(define-fun .def_159 () Bool (and .def_68 .def_158))
(define-fun .def_36 () Bool (not |.loc{8}|))
(define-fun .def_160 () Bool (and .def_36 .def_159))
(define-fun .def_161 () Bool (and |.loc{7}| .def_160))
(define-fun .def_162 () Bool (and .def_54 .def_161))
(define-fun .def_163 () Bool (and .def_100 .def_162))
(define-fun .def_209 () Bool (or .def_163 .def_208))
(define-fun .def_146 () (Array Int Int) (store .def_12 |.x{212}| 46))
(define-fun .def_147 () Bool (= |.x{203}| .def_146))
(define-fun .def_148 () Bool (and .def_30 .def_147))
(define-fun .def_149 () Bool (and .def_18 .def_148))
(define-fun .def_150 () Bool (and .def_34 .def_149))
(define-fun .def_151 () Bool (and .def_36 .def_150))
(define-fun .def_152 () Bool (and |.loc{7}| .def_151))
(define-fun .def_153 () Bool (and .def_42 .def_152))
(define-fun .def_154 () Bool (and .def_48 .def_153))
(define-fun .def_155 () Bool (and .def_50 .def_154))
(define-fun .def_156 () Bool (and .def_54 .def_155))
(define-fun .def_157 () Bool (and .def_61 .def_156))
(define-fun .def_210 () Bool (or .def_157 .def_209))
(define-fun .def_211 () Bool (and .def_22 .def_210))
(define-fun .def_139 () Bool (and .def_20 .def_138))
(define-fun .def_140 () Bool (and .def_33 .def_139))
(define-fun .def_141 () Bool (and .def_36 .def_140))
(define-fun .def_142 () Bool (and .def_88 .def_141))
(define-fun .def_143 () Bool (and .def_56 .def_142))
(define-fun .def_144 () Bool (and .def_100 .def_143))
(define-fun .def_212 () Bool (or .def_144 .def_211))
(define-fun .def_124 () (Array Int Int) (store .def_12 |.x{212}| 45))
(define-fun .def_125 () Bool (= |.x{203}| .def_124))
(define-fun .def_126 () Bool (and .def_30 .def_125))
(define-fun .def_127 () Bool (and .def_22 .def_126))
(define-fun .def_128 () Bool (and .def_68 .def_127))
(define-fun .def_129 () Bool (and .def_34 .def_128))
(define-fun .def_130 () Bool (and .def_36 .def_129))
(define-fun .def_131 () Bool (and .def_42 .def_130))
(define-fun .def_132 () Bool (and .def_48 .def_131))
(define-fun .def_133 () Bool (and .def_88 .def_132))
(define-fun .def_134 () Bool (and .def_50 .def_133))
(define-fun .def_135 () Bool (and .def_54 .def_134))
(define-fun .def_136 () Bool (and .def_61 .def_135))
(define-fun .def_213 () Bool (or .def_136 .def_212))
(define-fun .def_214 () Bool (and |.loc{9}| .def_213))
(define-fun .def_28 () Bool (not |.loc{9}|))
(define-fun .def_66 () Bool (and .def_28 .def_65))
(define-fun .def_93 () Bool (and .def_30 .def_66))
(define-fun .def_116 () Bool (and .def_20 .def_93))
(define-fun .def_117 () Bool (and .def_33 .def_116))
(define-fun .def_118 () Bool (and .def_68 .def_117))
(define-fun .def_119 () Bool (and |.loc{7}| .def_118))
(define-fun .def_120 () Bool (and |.loc{8}| .def_119))
(define-fun .def_121 () Bool (and .def_56 .def_120))
(define-fun .def_122 () Bool (and .def_100 .def_121))
(define-fun .def_215 () Bool (or .def_122 .def_214))
(define-fun .def_106 () (Array Int Int) (store .def_12 |.x{212}| 44))
(define-fun .def_107 () Bool (= |.x{203}| .def_106))
(define-fun .def_77 () Bool (and .def_28 .def_30))
(define-fun .def_102 () Bool (and .def_18 .def_77))
(define-fun .def_103 () Bool (and .def_20 .def_102))
(define-fun .def_104 () Bool (and .def_34 .def_103))
(define-fun .def_108 () Bool (and .def_104 .def_107))
(define-fun .def_109 () Bool (and |.loc{7}| .def_108))
(define-fun .def_110 () Bool (and |.loc{8}| .def_109))
(define-fun .def_111 () Bool (and .def_42 .def_110))
(define-fun .def_112 () Bool (and .def_48 .def_111))
(define-fun .def_113 () Bool (and .def_50 .def_112))
(define-fun .def_114 () Bool (and .def_56 .def_113))
(define-fun .def_115 () Bool (and .def_61 .def_114))
(define-fun .def_216 () Bool (or .def_115 .def_215))
(define-fun .def_94 () Bool (and .def_18 .def_93))
(define-fun .def_95 () Bool (and .def_33 .def_94))
(define-fun .def_96 () Bool (and |.loc{8}| .def_95))
(define-fun .def_97 () Bool (and .def_88 .def_96))
(define-fun .def_98 () Bool (and .def_54 .def_97))
(define-fun .def_99 () Bool (and .def_56 .def_98))
(define-fun .def_101 () Bool (and .def_99 .def_100))
(define-fun .def_217 () Bool (or .def_101 .def_216))
(define-fun .def_85 () (Array Int Int) (store .def_12 |.x{212}| 43))
(define-fun .def_86 () Bool (= |.x{203}| .def_85))
(define-fun .def_78 () Bool (and .def_20 .def_77))
(define-fun .def_79 () Bool (and .def_68 .def_78))
(define-fun .def_80 () Bool (and .def_34 .def_79))
(define-fun .def_81 () Bool (and |.loc{8}| .def_80))
(define-fun .def_82 () Bool (and .def_42 .def_81))
(define-fun .def_83 () Bool (and .def_48 .def_82))
(define-fun .def_87 () Bool (and .def_83 .def_86))
(define-fun .def_89 () Bool (and .def_87 .def_88))
(define-fun .def_90 () Bool (and .def_50 .def_89))
(define-fun .def_91 () Bool (and .def_56 .def_90))
(define-fun .def_92 () Bool (and .def_61 .def_91))
(define-fun .def_218 () Bool (or .def_92 .def_217))
(define-fun .def_52 () Bool (= .def_8 |.x{202}|))
(define-fun .def_219 () Bool (and .def_52 .def_218))
(define-fun .def_70 () Bool (<= |.x{201}| 0))
(define-fun .def_71 () Bool (not .def_70))
(define-fun .def_63 () Bool (<= |.x{202}| 0))
(define-fun .def_64 () Bool (not .def_63))
(define-fun .def_67 () Bool (and .def_64 .def_66))
(define-fun .def_69 () Bool (and .def_67 .def_68))
(define-fun .def_72 () Bool (and .def_69 .def_71))
(define-fun .def_73 () Bool (and .def_36 .def_72))
(define-fun .def_74 () Bool (and |.loc{7}| .def_73))
(define-fun .def_75 () Bool (and .def_54 .def_74))
(define-fun .def_76 () Bool (and .def_56 .def_75))
(define-fun .def_220 () Bool (or .def_76 .def_219))
(define-fun .def_26 () (Array Int Int) (store .def_12 |.x{212}| 42))
(define-fun .def_27 () Bool (= |.x{203}| .def_26))
(define-fun .def_29 () Bool (and .def_27 .def_28))
(define-fun .def_31 () Bool (and .def_29 .def_30))
(define-fun .def_32 () Bool (and .def_18 .def_31))
(define-fun .def_35 () Bool (and .def_32 .def_34))
(define-fun .def_37 () Bool (and .def_35 .def_36))
(define-fun .def_38 () Bool (and |.loc{7}| .def_37))
(define-fun .def_43 () Bool (and .def_38 .def_42))
(define-fun .def_49 () Bool (and .def_43 .def_48))
(define-fun .def_51 () Bool (and .def_49 .def_50))
(define-fun .def_53 () Bool (and .def_51 .def_52))
(define-fun .def_55 () Bool (and .def_53 .def_54))
(define-fun .def_57 () Bool (and .def_55 .def_56))
(define-fun .def_62 () Bool (and .def_57 .def_61))
(define-fun .def_221 () Bool (! (or .def_62 .def_220) :trans true))
(define-fun .def_224 () Int (! |.x{230}| :next |.xpv{1}|))
(define-fun .def_239 () Bool (and .def_18 .def_20))
(define-fun .def_240 () Bool (and .def_22 .def_239))
(define-fun .def_235 () Int (select .def_12 .def_224))
(define-fun .def_236 () Bool (= .def_235 47))
(define-fun .def_237 () Bool (not .def_236))
(define-fun .def_228 () Int (* (- 1) .def_224))
(define-fun .def_229 () Int (+ .def_14 .def_228))
(define-fun .def_230 () Int (+ .def_8 .def_229))
(define-fun .def_231 () Bool (= .def_230 0))
(define-fun .def_232 () Bool (and .def_186 .def_231))
(define-fun .def_225 () Bool (<= .def_224 0))
(define-fun .def_226 () Bool (not .def_225))
(define-fun .def_227 () Bool (or .def_45 .def_226))
(define-fun .def_233 () Bool (and .def_227 .def_232))
(define-fun .def_234 () Bool (and .def_50 .def_233))
(define-fun .def_238 () Bool (and .def_234 .def_237))
(define-fun .def_241 () Bool (and .def_238 .def_240))
(define-fun .def_243 () Bool (! (not .def_241) :invar-property 0))
(assert true)
